10 6 15 4 18 14 11 8 17 1 0 19 12 5 9 13 2 7 16 3  
10 6 15 4 14 18 11 7 8 17 1 0 19 12 5 9 13 2 16 3  
10 6 15 4 18 14 11 0 8 19 12 5 9 13 2 7 17 1 16 3  
10 6 15 4 18 14 11 7 8 0 19 12 5 9 13 2 1 17 16 3  
10 6 15 4 18 14 11 0 8 19 12 5 9 13 2 7 1 17 16 3  
10 6 15 4 14 18 11 7 8 17 1 0 19 12 5 9 13 2 16 3  
10 6 15 4 18 14 11 8 17 1 0 19 12 5 9 13 7 2 16 3  
10 6 15 4 11 14 18 8 0 19 12 5 9 2 13 7 1 17 16 3  
10 6 18 15 4 14 11 8 0 19 12 5 9 13 2 7 1 17 16 3  
10 6 15 4 18 14 11 0 8 19 12 5 9 13 2 7 1 17 16 3  
10 6 15 4 18 14 11 8 0 19 12 5 9 2 13 7 1 17 16 3  
10 6 15 4 18 14 11 8 0 19 12 5 9 13 2 7 1 17 16 3  
10 6 15 4 18 14 11 7 8 0 19 12 5 9 13 2 17 1 16 3  
10 6 18 15 4 14 11 8 0 19 12 5 9 13 2 7 1 17 16 3  
10 6 18 15 4 14 11 8 0 19 12 5 9 13 2 17 16 7 3 1  
10 6 15 4 18 14 11 7 8 0 19 12 5 9 13 2 17 1 16 3  
10 6 15 4 18 14 11 0 8 19 12 5 9 13 2 7 17 1 16 3  
10 6 15 4 18 14 11 8 0 19 12 5 9 13 2 7 1 17 16 3  
10 6 15 4 18 14 11 17 8 12 5 2 7 9 13 16 0 1 3 19  
10 6 15 4 18 14 11 7 8 17 12 5 9 19 3 13 16 0 1 2  
10 6 15 4 14 18 11 0 12 17 8 19 5 9 13 16 2 7 3 1  
10 6 15 4 18 14 11 8 17 12 0 19 5 9 13 2 16 7 3 1  
10 6 15 4 18 14 11 0 8 19 12 5 9 13 2 16 3 17 1 7  
10 6 15 4 14 18 11 7 8 17 1 0 19 12 5 9 13 2 16 3  
10 6 15 4 18 14 11 8 0 19 12 5 9 13 2 7 17 1 16 3  
10 6 18 15 4 14 11 8 0 19 12 5 9 13 2 16 17 1 7 3  
10 6 15 4 18 14 11 7 8 17 12 9 13 0 3 19 16 5 2 1  
10 6 15 4 18 14 11 7 8 0 19 12 5 9 13 2 1 17 16 3  
10 6 15 4 11 14 18 8 17 1 0 19 12 5 9 13 7 2 16 3  
10 6 15 4 14 18 11 17 8 19 12 5 9 13 2 16 0 1 7 3  
10 6 15 4 18 14 11 7 8 0 19 12 5 9 13 2 16 17 1 3  
10 6 15 4 18 14 11 7 8 17 1 0 19 12 5 9 13 2 16 3  
10 6 15 4 18 14 11 8 0 19 12 5 9 2 13 7 1 17 16 3  
10 6 18 15 4 14 11 0 8 19 12 5 9 13 2 16 3 17 1 7  
10 6 15 4 18 14 11 8 0 19 12 5 9 13 2 7 1 17 16 3  
10 6 15 4 18 14 11 7 17 8 12 5 9 19 2 1 0 13 16 3  
10 6 15 4 18 14 11 7 8 0 1 17 19 12 5 9 13 2 16 3  
10 6 15 4 14 18 11 17 8 19 12 5 9 13 7 16 0 1 2 3  
6 10 4 15 18 14 7 11 8 0 12 9 17 13 3 19 16 5 2 1  
